ATTRACTION = { A, B, C, D, E, F, G, H, I, J };
l = 3;
u = 8;

m = 45;

pair_attraction = [|  0,  2, -1,  3,  3,  4,  6, 10,  9,  3
                   |  2,  0, -4,  5,  2,  3, -9, -8, -7, -5
                   | -1, -4,  0,  3, -1,  0,  0, -3,  6,  9
                   |  3,  5,  3,  0,  2, -3, -3, -2, -3, -2
                   |  3,  2, -1,  2,  0,  8,  5,  3,  2,  1
                   |  4,  3,  0, -3,  8,  0,  2,  1,  4,  0
                   |  6, -9,  0, -3,  5,  2,  0, -1, -1,  3
                   | 10, -8, -3, -2,  3,  1, -1,  0,  9,  3
                   |  9, -7,  6, -3,  2,  4, -1,  9,  0,  2
                   |  3, -5,  9, -2,  1,  0,  3,  3,  2,  0|];

cost = [12, 4, 4, 2, 2, 8, 5, 15, 5, 12];